NAME : X_30_seed_123_id_1
TYPE : CVRP
DIMENSION : 237
EDGE_WEIGHT_TYPE : EUC_2D
CAPACITY : 18
NODE_COORD_SECTION
1	0	0
2	865	259
3	128	104
4	638	126
5	333	606
6	165	625
7	564	851
8	770	994
9	493	224
10	526	514
11	859	986
12	366	238
13	672	978
14	951	377
15	288	414
16	771	735
17	233	219
18	247	847
19	880	106
20	731	846
21	111	533
22	158	699
23	852	799
24	70	736
25	391	589
26	189	248
27	216	223
28	27	321
29	16	474
30	897	135
31	293	403
32	767	880
33	191	740
34	888	404
35	89	286
36	211	837
37	113	398
38	696	256
39	89	796
40	577	277
41	956	540
42	8	808
43	20	438
44	760	607
45	991	622
46	747	551
47	281	687
48	125	716
49	898	223
50	544	864
51	297	233
52	76	810
53	965	515
54	869	703
55	197	434
56	450	730
57	231	467
58	401	915
59	669	201
60	179	790
61	302	386
62	755	49
63	377	509
64	520	496
65	402	419
66	935	922
67	745	347
68	234	626
69	71	105
70	495	583
71	593	890
72	660	493
73	652	794
74	750	891
75	573	295
76	820	719
77	295	126
78	264	410
79	720	258
80	823	180
81	771	295
82	179	823
83	832	205
84	199	838
85	29	24
86	38	719
87	330	152
88	32	958
89	508	821
90	115	434
91	623	980
92	179	435
93	713	951
94	625	584
95	0	225
96	30	788
97	23	530
98	60	111
99	443	635
100	468	920
101	531	116
102	153	126
103	518	450
104	999	311
105	71	500
106	93	522
107	455	248
108	484	400
109	583	174
110	939	191
111	413	554
112	234	527
113	118	259
114	340	49
115	545	765
116	743	290
117	63	268
118	874	538
119	455	936
120	809	924
121	253	655
122	234	180
123	557	964
124	804	359
125	743	489
126	955	713
127	142	916
128	801	725
129	725	8
130	665	844
131	757	401
132	768	790
133	288	430
134	94	889
135	788	726
136	207	60
137	794	740
138	446	101
139	691	447
140	653	868
141	430	774
142	331	667
143	386	405
144	754	596
145	702	284
146	403	578
147	474	724
148	872	416
149	605	559
150	358	808
151	122	648
152	687	485
153	214	181
154	534	192
155	660	415
156	364	665
157	32	187
158	904	80
159	581	941
160	6	127
161	6	632
162	740	964
163	160	113
164	137	720
165	871	795
166	686	813
167	533	532
168	765	366
169	183	287
170	159	370
171	675	414
172	837	821
173	276	34
174	717	22
175	253	681
176	765	535
177	349	329
178	836	382
179	636	762
180	425	669
181	710	389
182	199	819
183	217	506
184	849	483
185	921	355
186	552	451
187	693	827
188	844	950
189	919	374
190	862	126
191	213	423
192	465	703
193	929	470
194	38	750
195	484	121
196	238	768
197	378	745
198	531	622
199	664	133
200	115	93
201	467	968
202	631	880
203	465	743
204	770	675
205	837	677
206	64	82
207	293	283
208	942	968
209	46	254
210	521	343
211	473	967
212	132	908
213	341	545
214	920	662
215	232	879
216	340	770
217	775	685
218	241	957
219	678	818
220	230	789
221	812	202
222	662	432
223	335	755
224	635	690
225	539	866
226	873	284
227	954	759
228	869	709
229	752	845
230	220	496
231	509	923
232	969	621
233	430	515
234	471	641
235	365	63
236	284	856
237	94	942
DEMAND_SECTION
1	0
2	1
3	1
4	1
5	1
6	1
7	1
8	1
9	1
10	1
11	1
12	1
13	1
14	1
15	1
16	1
17	1
18	1
19	1
20	1
21	1
22	1
23	1
24	1
25	1
26	1
27	1
28	1
29	1
30	1
31	1
32	1
33	1
34	1
35	1
36	1
37	1
38	1
39	1
40	1
41	1
42	1
43	1
44	1
45	1
46	1
47	1
48	1
49	1
50	1
51	1
52	1
53	1
54	1
55	1
56	1
57	1
58	1
59	1
60	1
61	1
62	1
63	1
64	1
65	1
66	1
67	1
68	1
69	1
70	1
71	1
72	1
73	1
74	1
75	1
76	1
77	1
78	1
79	1
80	1
81	1
82	1
83	1
84	1
85	1
86	1
87	1
88	1
89	1
90	1
91	1
92	1
93	1
94	1
95	1
96	1
97	1
98	1
99	1
100	1
101	1
102	1
103	1
104	1
105	1
106	1
107	1
108	1
109	1
110	1
111	1
112	1
113	1
114	1
115	1
116	1
117	1
118	1
119	1
120	1
121	1
122	1
123	1
124	1
125	1
126	1
127	1
128	1
129	1
130	1
131	1
132	1
133	1
134	1
135	1
136	1
137	1
138	1
139	1
140	1
141	1
142	1
143	1
144	1
145	1
146	1
147	1
148	1
149	1
150	1
151	1
152	1
153	1
154	1
155	1
156	1
157	1
158	1
159	1
160	1
161	1
162	1
163	1
164	1
165	1
166	1
167	1
168	1
169	1
170	1
171	1
172	1
173	1
174	1
175	1
176	1
177	1
178	1
179	1
180	1
181	1
182	1
183	1
184	1
185	1
186	1
187	1
188	1
189	1
190	1
191	1
192	1
193	1
194	1
195	1
196	1
197	1
198	1
199	1
200	1
201	1
202	1
203	1
204	1
205	1
206	1
207	1
208	1
209	1
210	1
211	1
212	1
213	1
214	1
215	1
216	1
217	1
218	1
219	1
220	1
221	1
222	1
223	1
224	1
225	1
226	1
227	1
228	1
229	1
230	1
231	1
232	1
233	1
234	1
235	1
236	1
237	1
DEPOT_SECTION
1
-1
EOF
